500
500 501
500
500 501
500
500 501
500
500 501
500
500 501
500
500 501
500
500 501
500
500 501
500
500 501
500
500 501
500
500 501
500
500 501
500
500 501
500
500 501
500
500 501
500
500 501
500
500 501
500
500 501
500
500 501
500
500 501
500
500 501
500
500 501
500
500 501
500
500 501
500
500 501
500
500 501
500
500 501
500
500 501
500
500 501
500
500 501
500
500 501
500
500 501
500
500 501
500
500 501
500
500 501
500
500 501
500
500 501
500
500 501
500
500 501
500
500 501
500
500 501
500
500 501
500
500 501
500
500 501
500
500 501
500
500 501
500
500 501
500
500 501
500
500 501
500
500 501
500
500 501
500
500 501
500
500 501
500
500 501
500
500 501
500
500 501
500
500 501
500
500 501
500
500 501
500
500 501
500
500 501
500
500 501
500
500 501
500
500 501
500
500 501
500
500 501
500
500 501
500
500 501
500
500 501
500
500 501
500
500 501
500
500 501
500
500 501
500
500 501
500
500 501
500
500 501
500
500 501
500
500 501
500
500 501
500
500 501
500
500 501
500
500 501
500
500 501
500
500 501
500
500 501
500
500 501
500
500 501
500
500 501
500
500 501
500
500 501
500
500 501
500
500 501
500
500 501
500
500 501
500
500 501
500
500 501
500
500 501
500
500 501
500
500 501
500
500 501
500
500 501
500
500 501
500
500 501
500
500 501
500
500 501
500
500 501
500
500 501
500
500 501
500
500 501
500
500 501
500
500 501
500
500 501
500
500 501
500
500 501
500
500 501
500
500 501
500
500 501
500
500 501
500
500 501
500
500 501
500
500 501
500
500 501
500
500 501
500
500 501
500
500 501
500
500 501
500
500 501
500
500 501
500
500 501
500
500 501
500
500 501
500
500 501
500
500 501
500
500 501
500
500 501
500
500 501
500
500 501
500
500 501
500
500 501
500
500 501
500
500 501
500
500 501
500
500 501
500
500 501
500
500 501
500
500 501
500
500 501
500
500 501
500
500 501
500
500 501
500
500 501
500
500 501
500
500 501
500
500 501
500
500 501
500
500 501
500
500 501
500
500 501
500
500 501
500
500 501
500
500 501
500
500 501
500
500 501
500
500 501
500
500 501
500
500 501
500
500 501
500
500 501
500
500 501
500
500 501
500
500 501
500
500 501
500
500 501
500
500 501
500
500 501
500
500 501
500
500 501
500
500 501
500
500 501
500
500 501
500
500 501
500
500 501
500
500 501
500
500 501
500
500 501
500
500 501
500
500 501
500
500 501
500
500 501
500
500 501
500
500 501
500
500 501
500
500 501
500
500 501
500
500 501
500
500 501
500
500 501
500
500 501
500
500 501
500
500 501
500
500 501
500
500 501
500
500 501
500
500 501
500
500 501
500
500 501
500
500 501
500
500 501
500
500 501
500
500 501
500
500 501
500
500 501
500
500 501
500
500 501
500
500 501
500
500 501
500
500 501
500
500 501
500
500 501
500
500 501
500
500 501
500
500 501
500
500 501
500
500 501
500
500 501
500
500 501
500
500 501
500
500 501
500
500 501
500
500 501
500
500 501
500
500 501
500
500 501
500
500 501
500
500 501
500
500 501
500
500 501
500
500 501
500
500 501
500
500 501
500
500 501
500
500 501
500
500 501
500
500 501
500
500 501
500
500 501
500
500 501
500
500 501
500
500 501
500
500 501
500
500 501
500
500 501
500
500 501
500
500 501
500
500 501
500
500 501
500
500 501
500
500 501
500
500 501
500
500 501
500
500 501
500
500 501
500
500 501
500
500 501
500
500 501
500
500 501
500
500 501
500
500 501
500
500 501
500
500 501
500
500 501
500
500 501
500
500 501
500
500 501
500
500 501
500
500 501
500
500 501
500
500 501
500
500 501
500
500 501
500
500 501
500
500 501
500
500 501
500
500 501
500
500 501
500
500 501
500
500 501
500
500 501
500
500 501
500
500 501
500
500 501
500
500 501
500
500 501
500
500 501
500
500 501
500
500 501
500
500 501
500
500 501
500
500 501
500
500 501
500
500 501
500
500 501
500
500 501
500
500 501
500
500 501
500
500 501
500
500 501
500
500 501
500
500 501
500
500 501
500
500 501
500
500 501
500
500 501
500
500 501
500
500 501
500
500 501
500
500 501
500
500 501
500
500 501
500
500 501
500
500 501
500
500 501
500
500 501
500
500 501
500
500 501
500
500 501
500
500 501
500
500 501
500
500 501
500
500 501
500
500 501
500
500 501
500
500 501
500
500 501
500
500 501
500
500 501
500
500 501
500
500 501
500
500 501
500
500 501
500
500 501
500
500 501
500
500 501
500
500 501
500
500 501
500
500 501
500
500 501
500
500 501
500
500 501
500
500 501
500
500 501
500
500 501
500
500 501
500
500 501
500
500 501
500
500 501
500
500 501
500
500 501
500
500 501
500
500 501
500
500 501
500
500 501
500
500 501
500
500 501
500
500 501
500
500 501
500
500 501
500
500 501
500
500 501
500
500 501
500
500 501
500
500 501
500
500 501
500
500 501
500
500 501
500
500 501
500
500 501
500
500 501
500
500 501
500
500 501
500
500 501
500
500 501
500
500 501
500
500 501
500
500 501
500
500 501
500
500 501
500
500 501
500
500 501
500
500 501
500
500 501
500
500 501
500
500 501
500
500 501
500
500 501
500
500 501
500
500 501
500
500 501
500
500 501
500
500 501
500
500 501
500
500 501
500
500 501
500
500 501
500
500 501
500
500 501
500
500 501
500
500 501
500
500 501
500
500 501
500
500 501
500
500 501
500
500 501
500
500 501
500
500 501
500
500 501
500
500 501
500
500 501
500
500 501
500
500 501
500
500 501
500
500 501
500
500 501
500
500 501
500
500 501
500
500 501
500
500 501
500
500 501
500
500 501
500
500 501
500
500 501
500
500 501
500
500 501
500
500 501
500
500 501
500
500 501
500
500 501
500
500 501
500
500 501
500
500 501
500
500 501
500
500 501
500
500 501
500
500 501
500
500 501
500
500 501
500
500 501
500
500 501
500
500 501
500
500 501
500
500 501
500
500 501
500
500 501
500
500 501
500
500 501
500
500 501
500
500 501
500
500 501
500
500 501
500
500 501
500
500 501
500
500 501
500
500 501
500
500 501
500
500 501
500
500 501
500
500 501
500
500 501
500
500 501
500
500 501
500
500 501
500
500 501
500
500 501
500
500 501
500
500 501
500
500 501
500
500 501
500
500 501
500
500 501
500
500 501
500
500 501
500
500 501
500
500 501
500
500 501
500
500 501
500
500 501
500
500 501
500
500 501
500
500 501
500
500 501
500
500 501
500
500 501
500
500 501
500
500 501
500
500 501
500
500 501
500
500 501
500
500 501
500
500 501
500
500 501